50
    65    23     5    33    73    82    90    30    26    40    78    83    94    95    57    75     9    40    31    28    71    54    21     8    45    11    60    19    61    73     1     6    16    93     9    56    72    15    67    94    55    73    72    89    59    93    38    49    43    90
    10     4    10     9     6     7     8     6     2    10     3     3     2     2     4     2    10     8     6     9     9    10     9    10     1     8     5     6     8    10     3     7     2     8     6     9     6     5     2     6     9     9     4     9     5     5     8     6     2     7
  2958  2179  1444  3044  1649  1456  2463  1796  2762  1998  2967  2458  1272  2052  1661  1740  2457  2235  1030  1778  1912  1107  2260  1072  1548  2043  1194  2907  1948  2629  1756  2176  1916  1541  1629  2026  1110  2334  1565  2742  1651  1812  1341  1938  2531  2043  2909  1944  1221  2845
